NAME : P = NP
TYPE : TSP
DIMENSION : 69
EDGE_WEIGHT_TYPE : EUC_2D
NODE_COORD_SECTION
0 51 5
1 180 116
2 81 307
3 976 229
4 7 563
5 287 392
6 247 138
7 173 116
8 446 511
9 760 385
10 38 421
11 368 316
12 359 229
13 5 250
14 379 190
15 539 582
16 101 140
17 57 85
18 89 23
19 71 351
20 558 725
21 108 509
22 247 60
23 389 256
24 681 216
25 467 400
26 55 131
27 49 37
28 129 417
29 757 30
30 143 534
31 13 771
32 86 238
33 332 185
34 321 819
35 321 86
36 100 579
37 219 196
38 258 36
39 16 725
40 189 253
41 1 261
42 6 182
43 526 501
44 18 22
45 431 9
46 227 137
47 545 310
48 268 89
49 468 173
50 83 43
51 115 12
52 50 62
53 203 73
54 152 294
55 631 32
56 541 156
57 87 48
58 17 19
59 481 243
60 394 221
61 316 456
62 187 265
63 390 471
64 447 196
65 136 18
66 96 229
67 38 32
68 81 410